c defined variables: 35 36 37 38 39 40 41 42 43 44 45 46 47 48 49 50 51 52 53 54 55 56 57 58 59 60 61 62 63 64 65 66 67 68 69 72 73 74 77 80 83 86 89 92 93 94 95 96 97 98 99 100 101 102 103 104 105 106 107 108 109 110 111 112 113 114 115 116 117 118 119 120 121 122 123 124 125 126 127 128 129 130 131 132 133 134 135 136 137 138 139 140 141 142 143 144 145 146 147 148 149 150 151 152 153 154 155 156 157 158 159 160 161 162 163 164 165 166 167 168 169 170 171 172 173 174 175 176 177 178 179 180 181 182 183 184 185 186 187 188 189 190 191 
p cnf 801 1167
a 8 9 10 11 12 13 14 15 16 17 18 19 20 21 22 23 24 25 26 27 28 29 30 31 32 0
e 70 71 75 76 78 79 81 82 84 85 87 88 90 91 35 36 37 38 39 40 41 42 43 44 45 46 47 48 49 50 51 52 53 54 55 56 57 58 59 60 61 62 63 64 65 66 67 68 69 72 73 74 77 80 83 86 89 92 93 94 95 96 97 98 99 100 101 102 103 104 105 106 107 108 109 110 111 112 113 114 115 116 117 118 119 120 121 122 123 124 125 126 127 128 129 130 131 132 133 134 135 136 137 138 139 140 141 142 143 144 145 146 147 148 149 150 151 152 153 154 155 156 157 158 159 160 161 162 163 164 165 166 167 168 169 170 171 172 173 174 175 176 177 178 179 180 181 182 183 184 185 186 187 188 189 190 191 665 666 667 668 669 670 671 672 673 674 675 676 677 678 679 680 681 682 683 684 685 686 687 688 689 690 691 692 693 694 695 696 697 698 699 700 701 702 703 704 705 706 707 708 709 710 711 712 713 714 715 716 717 718 719 720 721 722 723 724 725 726 727 728 729 730 731 732 733 734 735 736 737 738 739 740 741 742 743 744 745 746 747 748 749 750 751 752 753 754 755 756 757 758 759 760 761 762 763 764 765 766 767 768 769 770 771 772 773 774 775 776 777 778 779 780 781 782 783 784 785 786 787 788 789 790 791 792 793 794 795 796 797 798 799 800 801 0
d 1 8 9 10 11 12 13 14 15 16 17 18 19 20 21 22 23 0
d 2 8 9 10 11 12 13 14 15 16 17 18 19 20 21 22 23 0
d 3 8 9 10 11 12 13 14 15 16 17 18 19 20 21 22 23 0
d 4 8 9 10 11 12 13 14 15 16 17 18 19 20 21 22 23 0
d 5 8 9 10 11 12 13 14 15 16 17 18 19 20 21 22 23 0
d 6 8 9 10 11 12 13 14 15 16 17 18 19 20 21 22 23 0
d 7 8 9 10 11 12 13 14 15 16 17 18 19 20 21 22 23 0
d 33 15 16 17 18 19 20 21 22 23 0
d 34 24 25 26 27 28 29 30 31 32 0
666 -35 0
-666 35 0
667 -36 0
-667 36 0
668 -37 0
-668 37 0
669 -38 0
-669 38 0
670 -39 0
-670 39 0
671 -40 0
-671 40 0
672 -41 0
-672 41 0
673 -42 0
-673 42 0
674 -43 0
-674 43 0
675 -44 0
-675 44 0
676 -45 0
-676 45 0
677 -46 0
-677 46 0
678 -47 0
-678 47 0
679 -48 0
-679 48 0
680 -49 0
-680 49 0
681 -50 0
-681 50 0
682 -51 0
-682 51 0
683 -52 0
-683 52 0
684 -53 0
-684 53 0
685 -54 0
-685 54 0
686 -55 0
-686 55 0
687 -56 0
-687 56 0
688 -57 0
-688 57 0
689 -58 0
-689 58 0
690 -59 0
-690 59 0
691 -60 0
-691 60 0
692 -61 0
-692 61 0
693 -62 0
-693 62 0
694 -63 0
-694 63 0
695 -64 0
-695 64 0
696 -65 0
-696 65 0
697 -66 0
-697 66 0
698 -67 0
-698 67 0
699 -68 0
-699 68 0
700 -69 0
-700 69 0
701 -72 0
-701 72 0
-665 -73 0
665 73 0
702 -74 0
-702 74 0
703 -77 0
-703 77 0
704 -80 0
-704 80 0
705 -83 0
-705 83 0
706 -86 0
-706 86 0
707 -89 0
-707 89 0
708 -92 0
-708 92 0
709 -93 0
-709 93 0
710 -94 0
-710 94 0
711 -95 0
-711 95 0
712 -96 0
-712 96 0
713 -97 0
-713 97 0
714 -98 0
-714 98 0
715 -99 0
-715 99 0
716 -100 0
-716 100 0
717 -101 0
-717 101 0
718 -102 0
-718 102 0
719 -103 0
-719 103 0
720 -104 0
-720 104 0
721 -105 0
-721 105 0
722 -106 0
-722 106 0
723 -107 0
-723 107 0
724 -108 0
-724 108 0
725 -109 0
-725 109 0
726 -110 0
-726 110 0
727 -111 0
-727 111 0
728 -112 0
-728 112 0
729 -113 0
-729 113 0
730 -114 0
-730 114 0
731 -115 0
-731 115 0
732 -116 0
-732 116 0
733 -117 0
-733 117 0
734 -118 0
-734 118 0
735 -119 0
-735 119 0
736 -120 0
-736 120 0
737 -121 0
-737 121 0
738 -122 0
-738 122 0
739 -123 0
-739 123 0
740 -124 0
-740 124 0
741 -125 0
-741 125 0
742 -126 0
-742 126 0
743 -127 0
-743 127 0
744 -128 0
-744 128 0
745 -129 0
-745 129 0
746 -130 0
-746 130 0
747 -131 0
-747 131 0
748 -132 0
-748 132 0
749 -133 0
-749 133 0
750 -134 0
-750 134 0
751 -135 0
-751 135 0
752 -136 0
-752 136 0
753 -137 0
-753 137 0
754 -138 0
-754 138 0
755 -139 0
-755 139 0
756 -140 0
-756 140 0
757 -141 0
-757 141 0
758 -142 0
-758 142 0
759 -143 0
-759 143 0
760 -144 0
-760 144 0
761 -145 0
-761 145 0
762 -146 0
-762 146 0
763 -147 0
-763 147 0
764 -148 0
-764 148 0
765 -149 0
-765 149 0
766 -150 0
-766 150 0
767 -151 0
-767 151 0
768 -152 0
-768 152 0
769 -153 0
-769 153 0
770 -154 0
-770 154 0
771 -155 0
-771 155 0
772 -156 0
-772 156 0
773 -157 0
-773 157 0
774 -158 0
-774 158 0
775 -159 0
-775 159 0
776 -160 0
-776 160 0
777 -161 0
-777 161 0
778 -162 0
-778 162 0
779 -163 0
-779 163 0
780 -164 0
-780 164 0
781 -165 0
-781 165 0
782 -166 0
-782 166 0
783 -167 0
-783 167 0
784 -168 0
-784 168 0
785 -169 0
-785 169 0
786 -170 0
-786 170 0
787 -171 0
-787 171 0
-665 -172 0
665 172 0
788 -173 0
-788 173 0
789 -174 0
-789 174 0
790 -175 0
-790 175 0
791 -176 0
-791 176 0
792 -177 0
-792 177 0
793 -178 0
-793 178 0
-665 -179 0
665 179 0
794 -180 0
-794 180 0
795 -181 0
-795 181 0
796 -182 0
-796 182 0
797 -183 0
-797 183 0
798 -184 0
-798 184 0
799 -185 0
-799 185 0
800 -186 0
-800 186 0
801 -187 0
-801 187 0
-665 -188 0
665 188 0
665 -189 0
-665 189 0
665 -190 0
-665 190 0
665 -191 0
-665 191 0
-35 -32 0
-35 23 0
35 32 -23 0
-36 32 0
-36 -23 0
36 -32 23 0
-37 -35 0
-37 -36 0
37 35 36 0
-38 -24 0
-38 15 0
38 24 -15 0
-39 24 0
-39 -15 0
39 -24 15 0
-40 -38 0
-40 -39 0
40 38 39 0
-41 -25 0
-41 16 0
41 25 -16 0
-42 25 0
-42 -16 0
42 -25 16 0
-43 -41 0
-43 -42 0
43 41 42 0
-44 40 0
-44 43 0
44 -40 -43 0
-45 -26 0
-45 17 0
45 26 -17 0
-46 26 0
-46 -17 0
46 -26 17 0
-47 -45 0
-47 -46 0
47 45 46 0
-48 -27 0
-48 18 0
48 27 -18 0
-49 27 0
-49 -18 0
49 -27 18 0
-50 -48 0
-50 -49 0
50 48 49 0
-51 47 0
-51 50 0
51 -47 -50 0
-52 44 0
-52 51 0
52 -44 -51 0
-53 -28 0
-53 19 0
53 28 -19 0
-54 28 0
-54 -19 0
54 -28 19 0
-55 -53 0
-55 -54 0
55 53 54 0
-56 -29 0
-56 20 0
56 29 -20 0
-57 29 0
-57 -20 0
57 -29 20 0
-58 -56 0
-58 -57 0
58 56 57 0
-59 55 0
-59 58 0
59 -55 -58 0
-60 -30 0
-60 21 0
60 30 -21 0
-61 30 0
-61 -21 0
61 -30 21 0
-62 -60 0
-62 -61 0
62 60 61 0
-63 -31 0
-63 22 0
63 31 -22 0
-64 31 0
-64 -22 0
64 -31 22 0
-65 -63 0
-65 -64 0
65 63 64 0
-66 62 0
-66 65 0
66 -62 -65 0
-67 59 0
-67 66 0
67 -59 -66 0
-68 52 0
-68 67 0
68 -52 -67 0
-69 37 0
-69 68 0
69 -37 -68 0
-70 34 0
-70 -33 0
70 -34 33 0
-71 -34 0
-71 33 0
71 34 -33 0
-72 -70 0
-72 -71 0
72 70 71 0
-73 69 0
-73 -72 0
73 -69 72 0
-74 23 0
-74 15 0
74 -23 -15 0
-75 -2 0
-75 1 0
75 2 -1 0
-76 2 0
-76 -1 0
76 -2 1 0
-77 -75 0
-77 -76 0
77 75 76 0
-78 -3 0
-78 -77 0
78 3 77 0
-79 3 0
-79 77 0
79 -3 -77 0
-80 -78 0
-80 -79 0
80 78 79 0
-81 -4 0
-81 -80 0
81 4 80 0
-82 4 0
-82 80 0
82 -4 -80 0
-83 -81 0
-83 -82 0
83 81 82 0
-84 -5 0
-84 -83 0
84 5 83 0
-85 5 0
-85 83 0
85 -5 -83 0
-86 -84 0
-86 -85 0
86 84 85 0
-87 -6 0
-87 -86 0
87 6 86 0
-88 6 0
-88 86 0
88 -6 -86 0
-89 -87 0
-89 -88 0
89 87 88 0
-90 -7 0
-90 -89 0
90 7 89 0
-91 7 0
-91 89 0
91 -7 -89 0
-92 -90 0
-92 -91 0
92 90 91 0
-93 74 0
-93 -92 0
93 -74 92 0
-94 22 0
-94 15 0
94 -22 -15 0
-95 -22 0
-95 74 0
95 22 -74 0
-96 -94 0
-96 -95 0
96 94 95 0
-97 -93 0
-97 -96 0
97 93 96 0
-98 -32 0
-98 97 0
98 32 -97 0
-99 32 0
-99 -97 0
99 -32 97 0
-100 -98 0
-100 -99 0
100 98 99 0
-101 -94 0
-101 -93 0
101 94 93 0
-102 16 0
-102 -101 0
102 -16 101 0
-103 8 0
-103 101 0
103 -8 -101 0
-104 -102 0
-104 -103 0
104 102 103 0
-105 -25 0
-105 -104 0
105 25 104 0
-106 25 0
-106 104 0
106 -25 -104 0
-107 -105 0
-107 -106 0
107 105 106 0
-108 24 0
-108 107 0
108 -24 -107 0
-109 9 0
-109 -94 0
109 -9 94 0
-110 17 0
-110 94 0
110 -17 -94 0
-111 -109 0
-111 -110 0
111 109 110 0
-112 -93 0
-112 -111 0
112 93 111 0
-113 17 0
-113 15 0
113 -17 -15 0
-114 113 0
-114 93 0
114 -113 -93 0
-115 -112 0
-115 -114 0
115 112 114 0
-116 -26 0
-116 -115 0
116 26 115 0
-117 26 0
-117 115 0
117 -26 -115 0
-118 -116 0
-118 -117 0
118 116 117 0
-119 10 0
-119 -94 0
119 -10 94 0
-120 18 0
-120 94 0
120 -18 -94 0
-121 -119 0
-121 -120 0
121 119 120 0
-122 -93 0
-122 -121 0
122 93 121 0
-123 18 0
-123 15 0
123 -18 -15 0
-124 123 0
-124 93 0
124 -123 -93 0
-125 -122 0
-125 -124 0
125 122 124 0
-126 -27 0
-126 -125 0
126 27 125 0
-127 27 0
-127 125 0
127 -27 -125 0
-128 -126 0
-128 -127 0
128 126 127 0
-129 118 0
-129 128 0
129 -118 -128 0
-130 108 0
-130 129 0
130 -108 -129 0
-131 11 0
-131 -94 0
131 -11 94 0
-132 19 0
-132 94 0
132 -19 -94 0
-133 -131 0
-133 -132 0
133 131 132 0
-134 -93 0
-134 -133 0
134 93 133 0
-135 19 0
-135 15 0
135 -19 -15 0
-136 135 0
-136 93 0
136 -135 -93 0
-137 -134 0
-137 -136 0
137 134 136 0
-138 -28 0
-138 -137 0
138 28 137 0
-139 28 0
-139 137 0
139 -28 -137 0
-140 -138 0
-140 -139 0
140 138 139 0
-141 12 0
-141 -94 0
141 -12 94 0
-142 20 0
-142 94 0
142 -20 -94 0
-143 -141 0
-143 -142 0
143 141 142 0
-144 -93 0
-144 -143 0
144 93 143 0
-145 20 0
-145 15 0
145 -20 -15 0
-146 145 0
-146 93 0
146 -145 -93 0
-147 -144 0
-147 -146 0
147 144 146 0
-148 -29 0
-148 -147 0
148 29 147 0
-149 29 0
-149 147 0
149 -29 -147 0
-150 -148 0
-150 -149 0
150 148 149 0
-151 140 0
-151 150 0
151 -140 -150 0
-152 13 0
-152 -94 0
152 -13 94 0
-153 21 0
-153 94 0
153 -21 -94 0
-154 -152 0
-154 -153 0
154 152 153 0
-155 -93 0
-155 -154 0
155 93 154 0
-156 21 0
-156 93 0
156 -21 -93 0
-157 -155 0
-157 -156 0
157 155 156 0
-158 -30 0
-158 -157 0
158 30 157 0
-159 30 0
-159 157 0
159 -30 -157 0
-160 -158 0
-160 -159 0
160 158 159 0
-161 14 0
-161 -94 0
161 -14 94 0
-162 -93 0
-162 161 0
162 93 -161 0
-163 94 0
-163 93 0
163 -94 -93 0
-164 -162 0
-164 -163 0
164 162 163 0
-165 -31 0
-165 -164 0
165 31 164 0
-166 31 0
-166 164 0
166 -31 -164 0
-167 -165 0
-167 -166 0
167 165 166 0
-168 160 0
-168 167 0
168 -160 -167 0
-169 151 0
-169 168 0
169 -151 -168 0
-170 130 0
-170 169 0
170 -130 -169 0
-171 100 0
-171 170 0
171 -100 -170 0
-172 171 0
-172 71 0
172 -171 -71 0
-173 16 0
-173 113 0
173 -16 -113 0
-174 173 0
-174 123 0
174 -173 -123 0
-175 174 0
-175 135 0
175 -174 -135 0
-176 175 0
-176 145 0
176 -175 -145 0
-177 176 0
-177 153 0
177 -176 -153 0
-178 177 0
-178 74 0
178 -177 -74 0
-179 33 0
-179 178 0
179 -33 -178 0
-180 -16 0
-180 -15 0
180 16 15 0
-181 -18 0
-181 -17 0
181 18 17 0
-182 180 0
-182 181 0
182 -180 -181 0
-183 -20 0
-183 -19 0
183 20 19 0
-184 -22 0
-184 -21 0
184 22 21 0
-185 183 0
-185 184 0
185 -183 -184 0
-186 182 0
-186 185 0
186 -182 -185 0
-187 -23 0
-187 186 0
187 23 -186 0
-188 -33 0
-188 187 0
188 33 -187 0
-189 -179 0
-189 -188 0
189 179 188 0
-190 -172 0
-190 189 0
190 172 -189 0
-191 -73 0
-191 190 0
191 73 -190 0
191 0
665 0
23 -666 0
-32 -666 0
-23 32 666 0
-23 -667 0
32 -667 0
23 -32 667 0
-35 -668 0
-36 -668 0
35 36 668 0
15 -669 0
-24 -669 0
-15 24 669 0
-15 -670 0
24 -670 0
15 -24 670 0
-38 -671 0
-39 -671 0
38 39 671 0
16 -672 0
-25 -672 0
-16 25 672 0
-16 -673 0
25 -673 0
16 -25 673 0
-41 -674 0
-42 -674 0
41 42 674 0
40 -675 0
43 -675 0
-40 -43 675 0
17 -676 0
-26 -676 0
-17 26 676 0
-17 -677 0
26 -677 0
17 -26 677 0
-45 -678 0
-46 -678 0
45 46 678 0
18 -679 0
-27 -679 0
-18 27 679 0
-18 -680 0
27 -680 0
18 -27 680 0
-48 -681 0
-49 -681 0
48 49 681 0
47 -682 0
50 -682 0
-47 -50 682 0
44 -683 0
51 -683 0
-44 -51 683 0
19 -684 0
-28 -684 0
-19 28 684 0
-19 -685 0
28 -685 0
19 -28 685 0
-53 -686 0
-54 -686 0
53 54 686 0
20 -687 0
-29 -687 0
-20 29 687 0
-20 -688 0
29 -688 0
20 -29 688 0
-56 -689 0
-57 -689 0
56 57 689 0
55 -690 0
58 -690 0
-55 -58 690 0
21 -691 0
-30 -691 0
-21 30 691 0
-21 -692 0
30 -692 0
21 -30 692 0
-60 -693 0
-61 -693 0
60 61 693 0
22 -694 0
-31 -694 0
-22 31 694 0
-22 -695 0
31 -695 0
22 -31 695 0
-63 -696 0
-64 -696 0
63 64 696 0
62 -697 0
65 -697 0
-62 -65 697 0
59 -698 0
66 -698 0
-59 -66 698 0
52 -699 0
67 -699 0
-52 -67 699 0
37 -700 0
68 -700 0
-37 -68 700 0
-70 -701 0
-71 -701 0
70 71 701 0
15 -702 0
23 -702 0
-15 -23 702 0
-75 -703 0
-76 -703 0
75 76 703 0
-78 -704 0
-79 -704 0
78 79 704 0
-81 -705 0
-82 -705 0
81 82 705 0
-84 -706 0
-85 -706 0
84 85 706 0
-87 -707 0
-88 -707 0
87 88 707 0
-90 -708 0
-91 -708 0
90 91 708 0
74 -709 0
-92 -709 0
-74 92 709 0
15 -710 0
22 -710 0
-15 -22 710 0
-22 -711 0
74 -711 0
22 -74 711 0
-94 -712 0
-95 -712 0
94 95 712 0
-93 -713 0
-96 -713 0
93 96 713 0
-32 -714 0
97 -714 0
32 -97 714 0
32 -715 0
-97 -715 0
-32 97 715 0
-98 -716 0
-99 -716 0
98 99 716 0
-93 -717 0
-94 -717 0
93 94 717 0
16 -718 0
-101 -718 0
-16 101 718 0
8 -719 0
101 -719 0
-8 -101 719 0
-102 -720 0
-103 -720 0
102 103 720 0
-25 -721 0
-104 -721 0
25 104 721 0
25 -722 0
104 -722 0
-25 -104 722 0
-105 -723 0
-106 -723 0
105 106 723 0
24 -724 0
107 -724 0
-24 -107 724 0
9 -725 0
-94 -725 0
-9 94 725 0
17 -726 0
94 -726 0
-17 -94 726 0
-109 -727 0
-110 -727 0
109 110 727 0
-93 -728 0
-111 -728 0
93 111 728 0
15 -729 0
17 -729 0
-15 -17 729 0
93 -730 0
113 -730 0
-93 -113 730 0
-112 -731 0
-114 -731 0
112 114 731 0
-26 -732 0
-115 -732 0
26 115 732 0
26 -733 0
115 -733 0
-26 -115 733 0
-116 -734 0
-117 -734 0
116 117 734 0
10 -735 0
-94 -735 0
-10 94 735 0
18 -736 0
94 -736 0
-18 -94 736 0
-119 -737 0
-120 -737 0
119 120 737 0
-93 -738 0
-121 -738 0
93 121 738 0
15 -739 0
18 -739 0
-15 -18 739 0
93 -740 0
123 -740 0
-93 -123 740 0
-122 -741 0
-124 -741 0
122 124 741 0
-27 -742 0
-125 -742 0
27 125 742 0
27 -743 0
125 -743 0
-27 -125 743 0
-126 -744 0
-127 -744 0
126 127 744 0
118 -745 0
128 -745 0
-118 -128 745 0
108 -746 0
129 -746 0
-108 -129 746 0
11 -747 0
-94 -747 0
-11 94 747 0
19 -748 0
94 -748 0
-19 -94 748 0
-131 -749 0
-132 -749 0
131 132 749 0
-93 -750 0
-133 -750 0
93 133 750 0
15 -751 0
19 -751 0
-15 -19 751 0
93 -752 0
135 -752 0
-93 -135 752 0
-134 -753 0
-136 -753 0
134 136 753 0
-28 -754 0
-137 -754 0
28 137 754 0
28 -755 0
137 -755 0
-28 -137 755 0
-138 -756 0
-139 -756 0
138 139 756 0
12 -757 0
-94 -757 0
-12 94 757 0
20 -758 0
94 -758 0
-20 -94 758 0
-141 -759 0
-142 -759 0
141 142 759 0
-93 -760 0
-143 -760 0
93 143 760 0
15 -761 0
20 -761 0
-15 -20 761 0
93 -762 0
145 -762 0
-93 -145 762 0
-144 -763 0
-146 -763 0
144 146 763 0
-29 -764 0
-147 -764 0
29 147 764 0
29 -765 0
147 -765 0
-29 -147 765 0
-148 -766 0
-149 -766 0
148 149 766 0
140 -767 0
150 -767 0
-140 -150 767 0
13 -768 0
-94 -768 0
-13 94 768 0
21 -769 0
94 -769 0
-21 -94 769 0
-152 -770 0
-153 -770 0
152 153 770 0
-93 -771 0
-154 -771 0
93 154 771 0
21 -772 0
93 -772 0
-21 -93 772 0
-155 -773 0
-156 -773 0
155 156 773 0
-30 -774 0
-157 -774 0
30 157 774 0
30 -775 0
157 -775 0
-30 -157 775 0
-158 -776 0
-159 -776 0
158 159 776 0
14 -777 0
-94 -777 0
-14 94 777 0
-93 -778 0
161 -778 0
93 -161 778 0
93 -779 0
94 -779 0
-93 -94 779 0
-162 -780 0
-163 -780 0
162 163 780 0
-31 -781 0
-164 -781 0
31 164 781 0
31 -782 0
164 -782 0
-31 -164 782 0
-165 -783 0
-166 -783 0
165 166 783 0
160 -784 0
167 -784 0
-160 -167 784 0
151 -785 0
168 -785 0
-151 -168 785 0
130 -786 0
169 -786 0
-130 -169 786 0
100 -787 0
170 -787 0
-100 -170 787 0
16 -788 0
113 -788 0
-16 -113 788 0
123 -789 0
173 -789 0
-123 -173 789 0
135 -790 0
174 -790 0
-135 -174 790 0
145 -791 0
175 -791 0
-145 -175 791 0
153 -792 0
176 -792 0
-153 -176 792 0
74 -793 0
177 -793 0
-74 -177 793 0
-15 -794 0
-16 -794 0
15 16 794 0
-17 -795 0
-18 -795 0
17 18 795 0
180 -796 0
181 -796 0
-180 -181 796 0
-19 -797 0
-20 -797 0
19 20 797 0
-21 -798 0
-22 -798 0
21 22 798 0
183 -799 0
184 -799 0
-183 -184 799 0
182 -800 0
185 -800 0
-182 -185 800 0
-23 -801 0
186 -801 0
23 -186 801 0
